Route 1: 28 27 21 40 26 13
Route 2: 5 45 7 18 6 37 17
Route 3: 33 29 12 3 50 1
Route 4: 2 15 41 22 4 25
Route 5: 47 36 19 8 46 48
Route 6: 39 23 34 24
Route 7: 42 14 44 16 38 43
Route 8: 31 11 49 10 32
Route 9: 30 9 20 35
Vehicles: 9
Distance: 1018.09
